p edge 150 4470
e 1 2
e 1 3
e 1 6
e 1 7
e 1 8
e 1 9
e 1 12
e 1 14
e 1 18
e 1 19
e 1 20
e 1 22
e 1 27
e 1 29
e 1 33
e 1 38
e 1 39
e 1 40
e 1 42
e 1 44
e 1 45
e 1 47
e 1 51
e 1 53
e 1 55
e 1 56
e 1 57
e 1 60
e 1 63
e 1 67
e 1 69
e 1 72
e 1 74
e 1 76
e 1 83
e 1 85
e 1 87
e 1 88
e 1 89
e 1 90
e 1 93
e 1 95
e 1 98
e 1 99
e 1 101
e 1 102
e 1 105
e 1 107
e 1 108
e 1 113
e 1 115
e 1 116
e 1 120
e 1 124
e 1 127
e 1 130
e 1 131
e 1 133
e 1 134
e 1 135
e 1 136
e 1 138
e 1 139
e 1 143
e 1 146
e 2 4
e 2 6
e 2 8
e 2 12
e 2 17
e 2 18
e 2 19
e 2 22
e 2 23
e 2 24
e 2 26
e 2 28
e 2 29
e 2 31
e 2 34
e 2 42
e 2 43
e 2 44
e 2 49
e 2 50
e 2 52
e 2 53
e 2 54
e 2 56
e 2 58
e 2 60
e 2 62
e 2 63
e 2 69
e 2 72
e 2 76
e 2 80
e 2 83
e 2 84
e 2 85
e 2 88
e 2 89
e 2 90
e 2 96
e 2 99
e 2 100
e 2 101
e 2 103
e 2 112
e 2 117
e 2 120
e 2 121
e 2 125
e 2 130
e 2 131
e 2 132
e 2 133
e 2 137
e 2 140
e 2 141
e 2 143
e 2 144
e 2 145
e 2 146
e 3 6
e 3 12
e 3 15
e 3 16
e 3 17
e 3 19
e 3 20
e 3 21
e 3 27
e 3 30
e 3 32
e 3 34
e 3 39
e 3 40
e 3 42
e 3 43
e 3 48
e 3 49
e 3 52
e 3 54
e 3 55
e 3 58
e 3 62
e 3 65
e 3 66
e 3 70
e 3 72
e 3 75
e 3 77
e 3 78
e 3 79
e 3 83
e 3 93
e 3 94
e 3 95
e 3 96
e 3 98
e 3 101
e 3 103
e 3 105
e 3 109
e 3 110
e 3 111
e 3 113
e 3 117
e 3 118
e 3 120
e 3 125
e 3 129
e 3 130
e 3 131
e 3 134
e 3 135
e 3 137
e 3 142
e 3 145
e 3 148
e 3 149
e 4 7
e 4 10
e 4 12
e 4 13
e 4 17
e 4 18
e 4 24
e 4 26
e 4 27
e 4 33
e 4 34
e 4 36
e 4 39
e 4 42
e 4 43
e 4 45
e 4 47
e 4 48
e 4 51
e 4 52
e 4 53
e 4 55
e 4 60
e 4 63
e 4 64
e 4 65
e 4 69
e 4 71
e 4 74
e 4 77
e 4 79
e 4 81
e 4 82
e 4 85
e 4 86
e 4 92
e 4 93
e 4 94
e 4 96
e 4 107
e 4 110
e 4 118
e 4 119
e 4 120
e 4 122
e 4 124
e 4 129
e 4 130
e 4 136
e 4 137
e 4 138
e 4 139
e 4 142
e 4 146
e 4 150
e 5 6
e 5 7
e 5 18
e 5 21
e 5 24
e 5 28
e 5 31
e 5 32
e 5 34
e 5 36
e 5 38
e 5 46
e 5 47
e 5 48
e 5 49
e 5 54
e 5 55
e 5 56
e 5 57
e 5 58
e 5 60
e 5 64
e 5 72
e 5 77
e 5 83
e 5 84
e 5 86
e 5 94
e 5 97
e 5 98
e 5 104
e 5 105
e 5 106
e 5 109
e 5 113
e 5 114
e 5 117
e 5 118
e 5 121
e 5 122
e 5 123
e 5 125
e 5 128
e 5 129
e 5 130
e 5 133
e 5 134
e 5 138
e 5 139
e 5 142
e 5 144
e 5 145
e 5 146
e 5 147
e 5 148
e 6 7
e 6 8
e 6 13
e 6 14
e 6 17
e 6 18
e 6 20
e 6 21
e 6 25
e 6 31
e 6 36
e 6 38
e 6 40
e 6 41
e 6 43
e 6 44
e 6 45
e 6 48
e 6 51
e 6 54
e 6 60
e 6 63
e 6 64
e 6 66
e 6 69
e 6 72
e 6 73
e 6 75
e 6 84
e 6 86
e 6 88
e 6 90
e 6 95
e 6 96
e 6 99
e 6 103
e 6 112
e 6 113
e 6 116
e 6 118
e 6 128
e 6 131
e 6 134
e 6 139
e 6 141
e 6 142
e 6 146
e 6 147
e 6 149
e 7 11
e 7 13
e 7 14
e 7 16
e 7 19
e 7 22
e 7 25
e 7 31
e 7 33
e 7 34
e 7 35
e 7 36
e 7 37
e 7 38
e 7 39
e 7 43
e 7 44
e 7 45
e 7 46
e 7 47
e 7 49
e 7 50
e 7 52
e 7 55
e 7 57
e 7 60
e 7 61
e 7 62
e 7 64
e 7 66
e 7 68
e 7 73
e 7 75
e 7 78
e 7 79
e 7 80
e 7 83
e 7 86
e 7 87
e 7 89
e 7 91
e 7 92
e 7 98
e 7 102
e 7 103
e 7 104
e 7 107
e 7 113
e 7 117
e 7 118
e 7 122
e 7 123
e 7 126
e 7 128
e 7 132
e 7 135
e 7 136
e 7 139
e 7 142
e 7 145
e 7 146
e 7 149
e 7 150
e 8 10
e 8 12
e 8 20
e 8 21
e 8 22
e 8 24
e 8 28
e 8 33
e 8 36
e 8 39
e 8 40
e 8 41
e 8 42
e 8 46
e 8 47
e 8 49
e 8 51
e 8 58
e 8 62
e 8 64
e 8 69
e 8 71
e 8 74
e 8 75
e 8 76
e 8 77
e 8 78
e 8 79
e 8 81
e 8 82
e 8 87
e 8 88
e 8 92
e 8 93
e 8 97
e 8 98
e 8 99
e 8 100
e 8 104
e 8 107
e 8 108
e 8 111
e 8 115
e 8 116
e 8 121
e 8 122
e 8 124
e 8 125
e 8 129
e 8 130
e 8 143
e 8 146
e 8 148
e 8 149
e 8 150
e 9 15
e 9 21
e 9 22
e 9 23
e 9 26
e 9 28
e 9 29
e 9 31
e 9 35
e 9 39
e 9 48
e 9 49
e 9 51
e 9 52
e 9 56
e 9 57
e 9 58
e 9 60
e 9 61
e 9 62
e 9 65
e 9 66
e 9 67
e 9 68
e 9 69
e 9 72
e 9 77
e 9 78
e 9 80
e 9 82
e 9 84
e 9 87
e 9 88
e 9 91
e 9 93
e 9 95
e 9 96
e 9 97
e 9 104
e 9 106
e 9 109
e 9 110
e 9 111
e 9 117
e 9 119
e 9 121
e 9 127
e 9 130
e 9 136
e 9 138
e 9 139
e 9 142
e 9 145
e 9 149
e 10 12
e 10 17
e 10 19
e 10 21
e 10 23
e 10 25
e 10 28
e 10 33
e 10 35
e 10 38
e 10 39
e 10 42
e 10 43
e 10 44
e 10 45
e 10 46
e 10 49
e 10 51
e 10 54
e 10 58
e 10 59
e 10 60
e 10 61
e 10 64
e 10 65
e 10 69
e 10 70
e 10 72
e 10 73
e 10 76
e 10 77
e 10 79
e 10 80
e 10 83
e 10 84
e 10 89
e 10 90
e 10 92
e 10 94
e 10 97
e 10 99
e 10 100
e 10 101
e 10 102
e 10 104
e 10 106
e 10 111
e 10 116
e 10 124
e 10 127
e 10 130
e 10 131
e 10 133
e 10 135
e 10 138
e 10 141
e 10 142
e 10 145
e 10 146
e 10 149
e 10 150
e 11 12
e 11 13
e 11 16
e 11 31
e 11 33
e 11 34
e 11 35
e 11 36
e 11 38
e 11 41
e 11 42
e 11 48
e 11 50
e 11 57
e 11 61
e 11 63
e 11 65
e 11 66
e 11 67
e 11 68
e 11 72
e 11 76
e 11 77
e 11 83
e 11 85
e 11 86
e 11 87
e 11 88
e 11 89
e 11 92
e 11 95
e 11 97
e 11 100
e 11 107
e 11 108
e 11 112
e 11 113
e 11 114
e 11 116
e 11 121
e 11 123
e 11 126
e 11 127
e 11 130
e 11 132
e 11 135
e 11 136
e 11 141
e 11 144
e 11 145
e 12 13
e 12 14
e 12 17
e 12 18
e 12 22
e 12 24
e 12 26
e 12 27
e 12 29
e 12 34
e 12 36
e 12 38
e 12 46
e 12 48
e 12 49
e 12 56
e 12 57
e 12 59
e 12 60
e 12 63
e 12 67
e 12 68
e 12 69
e 12 70
e 12 73
e 12 74
e 12 75
e 12 76
e 12 77
e 12 78
e 12 80
e 12 83
e 12 84
e 12 85
e 12 86
e 12 88
e 12 89
e 12 93
e 12 95
e 12 96
e 12 99
e 12 101
e 12 102
e 12 104
e 12 105
e 12 107
e 12 108
e 12 109
e 12 111
e 12 113
e 12 115
e 12 117
e 12 121
e 12 122
e 12 123
e 12 124
e 12 127
e 12 128
e 12 130
e 12 131
e 12 133
e 12 135
e 12 139
e 12 142
e 12 143
e 12 146
e 12 148
e 13 15
e 13 21
e 13 24
e 13 25
e 13 33
e 13 34
e 13 35
e 13 42
e 13 43
e 13 45
e 13 48
e 13 49
e 13 50
e 13 53
e 13 54
e 13 55
e 13 57
e 13 58
e 13 60
e 13 62
e 13 63
e 13 65
e 13 66
e 13 69
e 13 79
e 13 83
e 13 84
e 13 86
e 13 87
e 13 88
e 13 89
e 13 95
e 13 96
e 13 98
e 13 101
e 13 102
e 13 103
e 13 104
e 13 109
e 13 110
e 13 112
e 13 116
e 13 118
e 13 120
e 13 124
e 13 126
e 13 129
e 13 133
e 13 134
e 13 135
e 13 136
e 13 137
e 13 139
e 13 141
e 13 142
e 13 144
e 13 145
e 13 146
e 13 147
e 13 148
e 13 149
e 14 17
e 14 18
e 14 20
e 14 21
e 14 22
e 14 24
e 14 25
e 14 28
e 14 32
e 14 33
e 14 34
e 14 38
e 14 39
e 14 40
e 14 41
e 14 42
e 14 43
e 14 44
e 14 46
e 14 47
e 14 49
e 14 51
e 14 54
e 14 58
e 14 60
e 14 62
e 14 64
e 14 65
e 14 71
e 14 72
e 14 74
e 14 75
e 14 76
e 14 79
e 14 80
e 14 83
e 14 85
e 14 86
e 14 88
e 14 91
e 14 92
e 14 93
e 14 96
e 14 100
e 14 102
e 14 104
e 14 106
e 14 107
e 14 109
e 14 110
e 14 111
e 14 112
e 14 113
e 14 117
e 14 119
e 14 121
e 14 122
e 14 124
e 14 129
e 14 130
e 14 131
e 14 132
e 14 133
e 14 139
e 14 140
e 14 145
e 14 147
e 14 150
e 15 18
e 15 19
e 15 23
e 15 28
e 15 32
e 15 33
e 15 35
e 15 36
e 15 37
e 15 38
e 15 40
e 15 44
e 15 48
e 15 51
e 15 52
e 15 57
e 15 61
e 15 62
e 15 66
e 15 68
e 15 69
e 15 71
e 15 72
e 15 73
e 15 74
e 15 75
e 15 76
e 15 81
e 15 92
e 15 95
e 15 98
e 15 99
e 15 106
e 15 113
e 15 116
e 15 117
e 15 122
e 15 127
e 15 133
e 15 134
e 15 136
e 15 142
e 15 144
e 15 145
e 15 147
e 15 150
e 16 17
e 16 18
e 16 19
e 16 23
e 16 24
e 16 26
e 16 29
e 16 38
e 16 40
e 16 42
e 16 43
e 16 44
e 16 47
e 16 53
e 16 54
e 16 56
e 16 58
e 16 63
e 16 67
e 16 68
e 16 70
e 16 74
e 16 76
e 16 78
e 16 81
e 16 83
e 16 89
e 16 90
e 16 92
e 16 93
e 16 94
e 16 98
e 16 101
e 16 103
e 16 104
e 16 106
e 16 109
e 16 110
e 16 112
e 16 117
e 16 122
e 16 123
e 16 128
e 16 129
e 16 132
e 16 133
e 16 139
e 16 140
e 16 141
e 16 144
e 16 146
e 16 149
e 16 150
e 17 18
e 17 25
e 17 26
e 17 30
e 17 34
e 17 35
e 17 36
e 17 40
e 17 41
e 17 43
e 17 49
e 17 52
e 17 56
e 17 64
e 17 65
e 17 66
e 17 69
e 17 70
e 17 71
e 17 72
e 17 73
e 17 74
e 17 75
e 17 77
e 17 80
e 17 83
e 17 84
e 17 87
e 17 88
e 17 93
e 17 94
e 17 95
e 17 96
e 17 99
e 17 102
e 17 103
e 17 104
e 17 110
e 17 112
e 17 114
e 17 116
e 17 117
e 17 122
e 17 125
e 17 127
e 17 130
e 17 133
e 17 134
e 17 135
e 17 141
e 17 145
e 17 146
e 18 20
e 18 21
e 18 27
e 18 28
e 18 29
e 18 32
e 18 42
e 18 43
e 18 45
e 18 46
e 18 48
e 18 50
e 18 54
e 18 58
e 18 59
e 18 60
e 18 64
e 18 68
e 18 77
e 18 81
e 18 88
e 18 90
e 18 97
e 18 98
e 18 99
e 18 100
e 18 101
e 18 104
e 18 105
e 18 106
e 18 107
e 18 113
e 18 117
e 18 118
e 18 120
e 18 124
e 18 125
e 18 126
e 18 127
e 18 128
e 18 129
e 18 131
e 18 132
e 18 138
e 18 140
e 18 142
e 18 144
e 18 145
e 18 146
e 18 149
e 18 150
e 19 23
e 19 24
e 19 27
e 19 32
e 19 38
e 19 40
e 19 45
e 19 46
e 19 49
e 19 59
e 19 65
e 19 70
e 19 71
e 19 73
e 19 75
e 19 79
e 19 80
e 19 85
e 19 86
e 19 87
e 19 89
e 19 93
e 19 94
e 19 96
e 19 100
e 19 102
e 19 103
e 19 105
e 19 106
e 19 113
e 19 115
e 19 117
e 19 123
e 19 124
e 19 125
e 19 127
e 19 128
e 19 129
e 19 130
e 19 135
e 19 136
e 19 139
e 19 142
e 19 143
e 19 144
e 19 145
e 19 147
e 19 149
e 20 21
e 20 22
e 20 26
e 20 29
e 20 32
e 20 34
e 20 37
e 20 39
e 20 40
e 20 45
e 20 51
e 20 52
e 20 53
e 20 56
e 20 61
e 20 67
e 20 68
e 20 69
e 20 72
e 20 81
e 20 82
e 20 87
e 20 88
e 20 89
e 20 94
e 20 99
e 20 104
e 20 105
e 20 109
e 20 110
e 20 112
e 20 113
e 20 126
e 20 129
e 20 131
e 20 132
e 20 134
e 20 135
e 20 136
e 20 137
e 20 138
e 20 140
e 20 143
e 20 144
e 20 145
e 20 146
e 21 24
e 21 25
e 21 26
e 21 29
e 21 31
e 21 33
e 21 35
e 21 38
e 21 39
e 21 40
e 21 41
e 21 43
e 21 49
e 21 51
e 21 58
e 21 59
e 21 64
e 21 66
e 21 69
e 21 73
e 21 74
e 21 75
e 21 76
e 21 81
e 21 82
e 21 86
e 21 89
e 21 90
e 21 93
e 21 94
e 21 96
e 21 98
e 21 101
e 21 102
e 21 104
e 21 114
e 21 115
e 21 116
e 21 117
e 21 118
e 21 124
e 21 129
e 21 130
e 21 135
e 21 141
e 21 145
e 21 147
e 21 148
e 22 24
e 22 31
e 22 34
e 22 35
e 22 37
e 22 39
e 22 40
e 22 41
e 22 42
e 22 43
e 22 45
e 22 46
e 22 50
e 22 51
e 22 55
e 22 61
e 22 62
e 22 65
e 22 67
e 22 72
e 22 73
e 22 74
e 22 77
e 22 80
e 22 82
e 22 84
e 22 85
e 22 92
e 22 94
e 22 97
e 22 98
e 22 100
e 22 102
e 22 105
e 22 106
e 22 109
e 22 110
e 22 111
e 22 112
e 22 114
e 22 115
e 22 117
e 22 118
e 22 121
e 22 122
e 22 123
e 22 125
e 22 127
e 22 130
e 22 135
e 22 136
e 22 138
e 22 139
e 22 142
e 22 143
e 22 144
e 22 145
e 22 146
e 22 149
e 23 25
e 23 27
e 23 41
e 23 44
e 23 47
e 23 53
e 23 54
e 23 58
e 23 59
e 23 61
e 23 67
e 23 75
e 23 76
e 23 77
e 23 81
e 23 84
e 23 87
e 23 97
e 23 101
e 23 103
e 23 104
e 23 106
e 23 107
e 23 110
e 23 111
e 23 112
e 23 113
e 23 120
e 23 121
e 23 122
e 23 124
e 23 125
e 23 128
e 23 136
e 23 137
e 23 140
e 23 142
e 23 143
e 23 144
e 23 146
e 23 147
e 23 148
e 24 26
e 24 27
e 24 31
e 24 38
e 24 41
e 24 43
e 24 44
e 24 45
e 24 47
e 24 50
e 24 52
e 24 54
e 24 55
e 24 56
e 24 60
e 24 62
e 24 63
e 24 71
e 24 72
e 24 73
e 24 74
e 24 76
e 24 78
e 24 86
e 24 87
e 24 88
e 24 89
e 24 91
e 24 94
e 24 96
e 24 97
e 24 105
e 24 106
e 24 108
e 24 110
e 24 111
e 24 112
e 24 113
e 24 118
e 24 119
e 24 120
e 24 121
e 24 125
e 24 130
e 24 135
e 24 139
e 24 142
e 24 143
e 24 144
e 24 149
e 24 150
e 25 28
e 25 30
e 25 35
e 25 39
e 25 40
e 25 41
e 25 44
e 25 49
e 25 50
e 25 51
e 25 52
e 25 58
e 25 60
e 25 63
e 25 66
e 25 67
e 25 71
e 25 74
e 25 76
e 25 78
e 25 79
e 25 80
e 25 82
e 25 83
e 25 90
e 25 91
e 25 95
e 25 97
e 25 99
e 25 100
e 25 102
e 25 104
e 25 105
e 25 106
e 25 112
e 25 113
e 25 117
e 25 120
e 25 123
e 25 126
e 25 128
e 25 129
e 25 133
e 25 134
e 25 137
e 25 138
e 25 140
e 25 142
e 25 143
e 25 144
e 25 147
e 25 150
e 26 28
e 26 29
e 26 32
e 26 34
e 26 37
e 26 40
e 26 41
e 26 44
e 26 50
e 26 51
e 26 52
e 26 58
e 26 59
e 26 60
e 26 61
e 26 64
e 26 66
e 26 69
e 26 70
e 26 71
e 26 72
e 26 82
e 26 83
e 26 86
e 26 89
e 26 90
e 26 92
e 26 97
e 26 98
e 26 99
e 26 100
e 26 102
e 26 103
e 26 104
e 26 105
e 26 110
e 26 111
e 26 113
e 26 117
e 26 120
e 26 121
e 26 124
e 26 126
e 26 127
e 26 129
e 26 132
e 26 137
e 26 140
e 26 141
e 26 143
e 26 146
e 26 147
e 26 148
e 26 149
e 26 150
e 27 28
e 27 29
e 27 30
e 27 31
e 27 33
e 27 38
e 27 40
e 27 44
e 27 45
e 27 52
e 27 53
e 27 58
e 27 59
e 27 61
e 27 63
e 27 66
e 27 69
e 27 72
e 27 73
e 27 75
e 27 86
e 27 92
e 27 93
e 27 95
e 27 98
e 27 105
e 27 108
e 27 111
e 27 112
e 27 116
e 27 123
e 27 126
e 27 127
e 27 128
e 27 132
e 27 135
e 27 138
e 27 140
e 27 141
e 27 145
e 27 147
e 27 148
e 27 150
e 28 31
e 28 41
e 28 42
e 28 43
e 28 44
e 28 46
e 28 48
e 28 52
e 28 54
e 28 58
e 28 59
e 28 60
e 28 65
e 28 68
e 28 72
e 28 73
e 28 76
e 28 79
e 28 82
e 28 86
e 28 89
e 28 99
e 28 100
e 28 102
e 28 103
e 28 105
e 28 106
e 28 107
e 28 109
e 28 112
e 28 113
e 28 114
e 28 116
e 28 117
e 28 118
e 28 121
e 28 127
e 28 133
e 28 137
e 28 145
e 28 148
e 28 150
e 29 32
e 29 36
e 29 39
e 29 40
e 29 44
e 29 45
e 29 50
e 29 52
e 29 53
e 29 54
e 29 56
e 29 58
e 29 63
e 29 64
e 29 68
e 29 71
e 29 72
e 29 73
e 29 76
e 29 77
e 29 78
e 29 79
e 29 87
e 29 88
e 29 93
e 29 94
e 29 96
e 29 97
e 29 102
e 29 106
e 29 107
e 29 110
e 29 111
e 29 113
e 29 114
e 29 115
e 29 117
e 29 119
e 29 121
e 29 123
e 29 126
e 29 128
e 29 130
e 29 139
e 29 140
e 29 146
e 29 148
e 29 150
e 30 33
e 30 34
e 30 36
e 30 38
e 30 41
e 30 42
e 30 44
e 30 49
e 30 50
e 30 53
e 30 54
e 30 55
e 30 61
e 30 62
e 30 63
e 30 65
e 30 67
e 30 73
e 30 74
e 30 82
e 30 84
e 30 86
e 30 89
e 30 92
e 30 93
e 30 94
e 30 96
e 30 98
e 30 101
e 30 102
e 30 104
e 30 106
e 30 110
e 30 111
e 30 112
e 30 113
e 30 116
e 30 118
e 30 119
e 30 120
e 30 125
e 30 129
e 30 130
e 30 136
e 30 138
e 30 139
e 30 143
e 30 144
e 30 146
e 30 149
e 31 33
e 31 37
e 31 38
e 31 39
e 31 40
e 31 44
e 31 48
e 31 54
e 31 56
e 31 65
e 31 71
e 31 72
e 31 75
e 31 76
e 31 77
e 31 79
e 31 80
e 31 83
e 31 90
e 31 93
e 31 94
e 31 96
e 31 97
e 31 100
e 31 102
e 31 103
e 31 105
e 31 106
e 31 109
e 31 111
e 31 112
e 31 113
e 31 115
e 31 116
e 31 119
e 31 120
e 31 123
e 31 127
e 31 128
e 31 129
e 31 137
e 31 142
e 31 144
e 31 147
e 31 148
e 31 149
e 31 150
e 32 33
e 32 35
e 32 38
e 32 39
e 32 40
e 32 41
e 32 43
e 32 45
e 32 47
e 32 50
e 32 51
e 32 52
e 32 55
e 32 56
e 32 58
e 32 59
e 32 61
e 32 63
e 32 67
e 32 70
e 32 73
e 32 74
e 32 77
e 32 81
e 32 85
e 32 86
e 32 87
e 32 92
e 32 99
e 32 102
e 32 105
e 32 108
e 32 111
e 32 114
e 32 119
e 32 120
e 32 121
e 32 129
e 32 131
e 32 134
e 32 135
e 32 136
e 32 138
e 32 139
e 32 142
e 32 143
e 32 145
e 32 148
e 33 34
e 33 36
e 33 42
e 33 43
e 33 44
e 33 47
e 33 50
e 33 51
e 33 55
e 33 57
e 33 58
e 33 59
e 33 60
e 33 64
e 33 65
e 33 67
e 33 70
e 33 71
e 33 78
e 33 79
e 33 84
e 33 86
e 33 87
e 33 88
e 33 90
e 33 95
e 33 99
e 33 106
e 33 109
e 33 117
e 33 119
e 33 123
e 33 124
e 33 126
e 33 128
e 33 129
e 33 130
e 33 132
e 33 134
e 33 138
e 33 141
e 33 144
e 33 145
e 33 147
e 33 148
e 33 149
e 34 35
e 34 37
e 34 38
e 34 44
e 34 48
e 34 49
e 34 54
e 34 55
e 34 56
e 34 57
e 34 58
e 34 60
e 34 68
e 34 69
e 34 72
e 34 75
e 34 76
e 34 78
e 34 84
e 34 86
e 34 87
e 34 97
e 34 101
e 34 103
e 34 104
e 34 105
e 34 106
e 34 110
e 34 112
e 34 113
e 34 115
e 34 116
e 34 120
e 34 122
e 34 131
e 34 132
e 34 134
e 34 136
e 34 138
e 34 139
e 34 142
e 34 143
e 34 145
e 34 146
e 34 149
e 35 39
e 35 42
e 35 43
e 35 45
e 35 51
e 35 53
e 35 54
e 35 55
e 35 60
e 35 68
e 35 69
e 35 70
e 35 71
e 35 72
e 35 80
e 35 82
e 35 83
e 35 85
e 35 95
e 35 97
e 35 98
e 35 104
e 35 111
e 35 112
e 35 114
e 35 129
e 35 131
e 35 134
e 35 135
e 35 144
e 35 145
e 35 149
e 36 39
e 36 42
e 36 43
e 36 44
e 36 45
e 36 46
e 36 54
e 36 57
e 36 58
e 36 59
e 36 60
e 36 64
e 36 67
e 36 68
e 36 70
e 36 71
e 36 72
e 36 73
e 36 74
e 36 75
e 36 76
e 36 80
e 36 81
e 36 85
e 36 86
e 36 88
e 36 89
e 36 91
e 36 92
e 36 93
e 36 95
e 36 96
e 36 97
e 36 100
e 36 102
e 36 104
e 36 108
e 36 111
e 36 112
e 36 114
e 36 117
e 36 121
e 36 124
e 36 126
e 36 127
e 36 132
e 36 133
e 36 134
e 36 135
e 36 138
e 36 142
e 36 145
e 36 148
e 36 149
e 36 150
e 37 38
e 37 40
e 37 44
e 37 45
e 37 47
e 37 48
e 37 52
e 37 54
e 37 57
e 37 58
e 37 60
e 37 62
e 37 65
e 37 66
e 37 69
e 37 74
e 37 77
e 37 80
e 37 81
e 37 83
e 37 84
e 37 86
e 37 90
e 37 91
e 37 92
e 37 93
e 37 95
e 37 97
e 37 99
e 37 103
e 37 104
e 37 106
e 37 108
e 37 109
e 37 110
e 37 111
e 37 116
e 37 126
e 37 127
e 37 130
e 37 131
e 37 133
e 37 134
e 37 135
e 37 138
e 37 139
e 37 140
e 37 141
e 37 144
e 37 145
e 38 39
e 38 41
e 38 45
e 38 46
e 38 47
e 38 48
e 38 49
e 38 51
e 38 58
e 38 60
e 38 62
e 38 68
e 38 70
e 38 71
e 38 75
e 38 83
e 38 86
e 38 87
e 38 88
e 38 91
e 38 95
e 38 98
e 38 107
e 38 112
e 38 113
e 38 114
e 38 115
e 38 116
e 38 119
e 38 120
e 38 121
e 38 124
e 38 126
e 38 131
e 38 132
e 38 133
e 38 135
e 38 138
e 38 139
e 38 141
e 38 143
e 38 144
e 38 145
e 38 147
e 38 148
e 39 41
e 39 43
e 39 45
e 39 46
e 39 52
e 39 53
e 39 57
e 39 61
e 39 62
e 39 65
e 39 67
e 39 68
e 39 69
e 39 71
e 39 74
e 39 80
e 39 81
e 39 82
e 39 91
e 39 95
e 39 97
e 39 103
e 39 107
e 39 111
e 39 113
e 39 115
e 39 119
e 39 120
e 39 122
e 39 124
e 39 126
e 39 128
e 39 129
e 39 130
e 39 132
e 39 135
e 39 136
e 39 140
e 39 145
e 39 147
e 39 149
e 39 150
e 40 46
e 40 52
e 40 56
e 40 59
e 40 60
e 40 62
e 40 64
e 40 65
e 40 68
e 40 72
e 40 74
e 40 75
e 40 78
e 40 79
e 40 81
e 40 85
e 40 88
e 40 90
e 40 91
e 40 92
e 40 95
e 40 97
e 40 98
e 40 99
e 40 100
e 40 105
e 40 108
e 40 109
e 40 110
e 40 113
e 40 114
e 40 115
e 40 120
e 40 124
e 40 125
e 40 126
e 40 129
e 40 132
e 40 133
e 40 135
e 40 138
e 40 139
e 40 143
e 40 146
e 40 148
e 40 149
e 41 43
e 41 46
e 41 48
e 41 51
e 41 53
e 41 54
e 41 57
e 41 58
e 41 59
e 41 60
e 41 62
e 41 63
e 41 64
e 41 66
e 41 67
e 41 68
e 41 78
e 41 80
e 41 81
e 41 91
e 41 95
e 41 105
e 41 106
e 41 109
e 41 110
e 41 111
e 41 117
e 41 120
e 41 121
e 41 122
e 41 123
e 41 124
e 41 125
e 41 126
e 41 138
e 41 139
e 41 143
e 41 146
e 41 147
e 41 149
e 41 150
e 42 46
e 42 47
e 42 48
e 42 50
e 42 53
e 42 54
e 42 57
e 42 61
e 42 67
e 42 68
e 42 69
e 42 71
e 42 77
e 42 79
e 42 84
e 42 86
e 42 91
e 42 92
e 42 95
e 42 96
e 42 97
e 42 98
e 42 100
e 42 101
e 42 103
e 42 106
e 42 107
e 42 108
e 42 111
e 42 112
e 42 113
e 42 114
e 42 118
e 42 119
e 42 120
e 42 123
e 42 124
e 42 125
e 42 130
e 42 133
e 42 134
e 42 142
e 42 145
e 42 147
e 42 149
e 43 44
e 43 50
e 43 51
e 43 52
e 43 55
e 43 58
e 43 64
e 43 67
e 43 69
e 43 70
e 43 73
e 43 76
e 43 80
e 43 83
e 43 86
e 43 87
e 43 91
e 43 94
e 43 96
e 43 99
e 43 100
e 43 101
e 43 105
e 43 111
e 43 112
e 43 113
e 43 116
e 43 123
e 43 125
e 43 126
e 43 127
e 43 128
e 43 141
e 43 142
e 43 144
e 43 145
e 43 150
e 44 48
e 44 50
e 44 52
e 44 60
e 44 63
e 44 64
e 44 68
e 44 71
e 44 72
e 44 74
e 44 78
e 44 79
e 44 80
e 44 82
e 44 83
e 44 84
e 44 86
e 44 87
e 44 88
e 44 91
e 44 95
e 44 101
e 44 107
e 44 111
e 44 113
e 44 114
e 44 117
e 44 118
e 44 119
e 44 120
e 44 121
e 44 122
e 44 124
e 44 128
e 44 131
e 44 142
e 44 144
e 45 47
e 45 50
e 45 54
e 45 55
e 45 57
e 45 59
e 45 60
e 45 62
e 45 63
e 45 66
e 45 71
e 45 73
e 45 74
e 45 75
e 45 77
e 45 79
e 45 83
e 45 88
e 45 90
e 45 92
e 45 94
e 45 98
e 45 101
e 45 102
e 45 103
e 45 105
e 45 106
e 45 112
e 45 114
e 45 117
e 45 120
e 45 123
e 45 125
e 45 127
e 45 128
e 45 135
e 45 136
e 45 137
e 45 138
e 45 139
e 45 143
e 45 145
e 45 146
e 45 149
e 46 49
e 46 52
e 46 54
e 46 56
e 46 60
e 46 61
e 46 62
e 46 66
e 46 68
e 46 74
e 46 79
e 46 80
e 46 81
e 46 82
e 46 83
e 46 84
e 46 86
e 46 88
e 46 90
e 46 93
e 46 95
e 46 96
e 46 97
e 46 98
e 46 100
e 46 102
e 46 105
e 46 110
e 46 111
e 46 112
e 46 113
e 46 114
e 46 116
e 46 123
e 46 125
e 46 128
e 46 129
e 46 132
e 46 133
e 46 134
e 46 136
e 46 140
e 46 143
e 46 145
e 46 146
e 46 148
e 47 53
e 47 55
e 47 57
e 47 58
e 47 60
e 47 61
e 47 62
e 47 64
e 47 65
e 47 69
e 47 70
e 47 72
e 47 73
e 47 75
e 47 78
e 47 81
e 47 83
e 47 87
e 47 90
e 47 91
e 47 93
e 47 94
e 47 96
e 47 97
e 47 99
e 47 102
e 47 105
e 47 107
e 47 109
e 47 110
e 47 111
e 47 112
e 47 114
e 47 115
e 47 119
e 47 121
e 47 123
e 47 127
e 47 128
e 47 130
e 47 131
e 47 133
e 47 140
e 47 141
e 47 142
e 47 145
e 47 147
e 47 150
e 48 49
e 48 51
e 48 54
e 48 55
e 48 56
e 48 58
e 48 59
e 48 60
e 48 62
e 48 63
e 48 65
e 48 67
e 48 70
e 48 72
e 48 73
e 48 76
e 48 79
e 48 81
e 48 82
e 48 83
e 48 84
e 48 85
e 48 86
e 48 87
e 48 89
e 48 92
e 48 97
e 48 98
e 48 102
e 48 103
e 48 104
e 48 107
e 48 112
e 48 113
e 48 116
e 48 117
e 48 119
e 48 121
e 48 122
e 48 124
e 48 129
e 48 135
e 48 136
e 48 143
e 48 144
e 48 145
e 48 146
e 48 148
e 49 51
e 49 54
e 49 57
e 49 59
e 49 62
e 49 63
e 49 67
e 49 70
e 49 72
e 49 73
e 49 76
e 49 77
e 49 79
e 49 82
e 49 84
e 49 90
e 49 92
e 49 93
e 49 94
e 49 96
e 49 100
e 49 101
e 49 102
e 49 104
e 49 108
e 49 110
e 49 115
e 49 118
e 49 120
e 49 122
e 49 123
e 49 127
e 49 141
e 49 144
e 49 146
e 49 148
e 50 53
e 50 56
e 50 63
e 50 66
e 50 67
e 50 68
e 50 69
e 50 76
e 50 79
e 50 83
e 50 84
e 50 85
e 50 90
e 50 93
e 50 95
e 50 96
e 50 98
e 50 99
e 50 104
e 50 105
e 50 106
e 50 107
e 50 108
e 50 110
e 50 114
e 50 116
e 50 118
e 50 120
e 50 122
e 50 123
e 50 124
e 50 127
e 50 128
e 50 129
e 50 130
e 50 131
e 50 144
e 50 147
e 50 148
e 50 150
e 51 52
e 51 55
e 51 58
e 51 59
e 51 68
e 51 70
e 51 73
e 51 76
e 51 80
e 51 81
e 51 82
e 51 83
e 51 84
e 51 85
e 51 88
e 51 90
e 51 91
e 51 95
e 51 101
e 51 102
e 51 104
e 51 107
e 51 110
e 51 111
e 51 113
e 51 114
e 51 117
e 51 118
e 51 121
e 51 123
e 51 125
e 51 134
e 51 137
e 51 139
e 51 145
e 51 146
e 51 149
e 52 55
e 52 60
e 52 61
e 52 64
e 52 68
e 52 69
e 52 75
e 52 81
e 52 82
e 52 83
e 52 87
e 52 89
e 52 90
e 52 91
e 52 93
e 52 98
e 52 102
e 52 104
e 52 107
e 52 111
e 52 112
e 52 116
e 52 118
e 52 123
e 52 124
e 52 125
e 52 127
e 52 129
e 52 131
e 52 135
e 52 137
e 52 138
e 52 140
e 52 141
e 52 142
e 52 143
e 52 145
e 52 146
e 52 148
e 52 150
e 53 57
e 53 59
e 53 62
e 53 65
e 53 67
e 53 69
e 53 70
e 53 71
e 53 72
e 53 75
e 53 80
e 53 86
e 53 89
e 53 90
e 53 94
e 53 95
e 53 100
e 53 101
e 53 102
e 53 103
e 53 104
e 53 108
e 53 109
e 53 110
e 53 112
e 53 114
e 53 121
e 53 129
e 53 135
e 53 140
e 53 146
e 54 59
e 54 60
e 54 62
e 54 63
e 54 68
e 54 69
e 54 70
e 54 71
e 54 73
e 54 74
e 54 75
e 54 78
e 54 82
e 54 83
e 54 86
e 54 88
e 54 93
e 54 103
e 54 105
e 54 111
e 54 114
e 54 117
e 54 118
e 54 122
e 54 123
e 54 125
e 54 126
e 54 128
e 54 130
e 54 135
e 54 136
e 54 137
e 54 138
e 54 140
e 54 141
e 54 143
e 54 146
e 54 147
e 54 148
e 54 150
e 55 56
e 55 58
e 55 59
e 55 62
e 55 63
e 55 65
e 55 67
e 55 68
e 55 76
e 55 80
e 55 84
e 55 87
e 55 88
e 55 91
e 55 92
e 55 95
e 55 96
e 55 97
e 55 98
e 55 99
e 55 100
e 55 104
e 55 105
e 55 109
e 55 110
e 55 118
e 55 119
e 55 120
e 55 121
e 55 123
e 55 125
e 55 126
e 55 130
e 55 132
e 55 135
e 55 146
e 55 147
e 55 149
e 55 150
e 56 58
e 56 59
e 56 60
e 56 64
e 56 67
e 56 69
e 56 70
e 56 71
e 56 76
e 56 91
e 56 92
e 56 94
e 56 96
e 56 99
e 56 102
e 56 103
e 56 106
e 56 108
e 56 109
e 56 110
e 56 112
e 56 114
e 56 115
e 56 116
e 56 117
e 56 120
e 56 121
e 56 122
e 56 123
e 56 125
e 56 129
e 56 132
e 56 133
e 56 134
e 56 135
e 56 136
e 56 137
e 56 139
e 56 141
e 56 145
e 56 146
e 56 147
e 56 148
e 57 62
e 57 68
e 57 70
e 57 73
e 57 79
e 57 80
e 57 82
e 57 85
e 57 90
e 57 92
e 57 94
e 57 97
e 57 99
e 57 102
e 57 103
e 57 105
e 57 106
e 57 107
e 57 110
e 57 115
e 57 116
e 57 117
e 57 119
e 57 121
e 57 122
e 57 123
e 57 128
e 57 133
e 57 135
e 57 137
e 57 140
e 57 143
e 57 145
e 57 150
e 58 62
e 58 63
e 58 64
e 58 67
e 58 69
e 58 71
e 58 75
e 58 77
e 58 78
e 58 81
e 58 84
e 58 89
e 58 92
e 58 95
e 58 96
e 58 99
e 58 101
e 58 103
e 58 104
e 58 105
e 58 106
e 58 107
e 58 110
e 58 111
e 58 112
e 58 120
e 58 125
e 58 127
e 58 129
e 58 130
e 58 132
e 58 135
e 58 138
e 58 146
e 58 147
e 58 148
e 58 149
e 59 61
e 59 64
e 59 73
e 59 74
e 59 79
e 59 82
e 59 83
e 59 85
e 59 88
e 59 93
e 59 94
e 59 95
e 59 96
e 59 102
e 59 104
e 59 107
e 59 110
e 59 112
e 59 114
e 59 116
e 59 121
e 59 122
e 59 126
e 59 127
e 59 128
e 59 129
e 59 130
e 59 131
e 59 133
e 59 137
e 59 140
e 59 142
e 59 144
e 59 146
e 59 147
e 59 148
e 59 149
e 60 65
e 60 70
e 60 71
e 60 73
e 60 75
e 60 78
e 60 86
e 60 89
e 60 95
e 60 97
e 60 98
e 60 100
e 60 101
e 60 104
e 60 106
e 60 107
e 60 111
e 60 116
e 60 119
e 60 121
e 60 122
e 60 123
e 60 126
e 60 131
e 60 144
e 60 146
e 61 63
e 61 66
e 61 72
e 61 73
e 61 74
e 61 76
e 61 77
e 61 90
e 61 95
e 61 99
e 61 102
e 61 107
e 61 109
e 61 115
e 61 120
e 61 124
e 61 126
e 61 132
e 61 134
e 61 137
e 61 140
e 61 141
e 61 145
e 61 147
e 61 148
e 62 63
e 62 69
e 62 70
e 62 71
e 62 72
e 62 73
e 62 74
e 62 75
e 62 77
e 62 78
e 62 83
e 62 86
e 62 87
e 62 88
e 62 89
e 62 93
e 62 94
e 62 96
e 62 97
e 62 99
e 62 105
e 62 108
e 62 110
e 62 112
e 62 115
e 62 117
e 62 119
e 62 126
e 62 127
e 62 134
e 62 136
e 62 137
e 62 143
e 62 146
e 62 150
e 63 64
e 63 65
e 63 67
e 63 68
e 63 70
e 63 72
e 63 75
e 63 78
e 63 79
e 63 89
e 63 93
e 63 94
e 63 95
e 63 97
e 63 98
e 63 108
e 63 109
e 63 110
e 63 112
e 63 113
e 63 118
e 63 119
e 63 120
e 63 128
e 63 130
e 63 131
e 63 135
e 63 136
e 63 139
e 63 141
e 63 146
e 63 147
e 63 148
e 64 67
e 64 69
e 64 73
e 64 74
e 64 75
e 64 77
e 64 78
e 64 80
e 64 81
e 64 84
e 64 87
e 64 88
e 64 89
e 64 90
e 64 91
e 64 93
e 64 95
e 64 96
e 64 98
e 64 100
e 64 101
e 64 108
e 64 109
e 64 113
e 64 114
e 64 116
e 64 117
e 64 120
e 64 122
e 64 123
e 64 125
e 64 126
e 64 127
e 64 131
e 64 134
e 64 135
e 64 137
e 64 138
e 64 141
e 64 142
e 64 144
e 64 145
e 64 148
e 65 68
e 65 70
e 65 72
e 65 74
e 65 75
e 65 76
e 65 79
e 65 84
e 65 86
e 65 87
e 65 88
e 65 91
e 65 92
e 65 94
e 65 95
e 65 96
e 65 100
e 65 101
e 65 102
e 65 104
e 65 105
e 65 114
e 65 116
e 65 117
e 65 118
e 65 124
e 65 126
e 65 132
e 65 134
e 65 138
e 65 139
e 65 141
e 65 142
e 65 144
e 65 145
e 65 148
e 65 149
e 66 68
e 66 69
e 66 70
e 66 71
e 66 76
e 66 77
e 66 80
e 66 84
e 66 85
e 66 88
e 66 95
e 66 96
e 66 102
e 66 107
e 66 108
e 66 109
e 66 110
e 66 113
e 66 118
e 66 120
e 66 133
e 66 135
e 66 137
e 66 138
e 66 141
e 66 142
e 66 145
e 66 149
e 66 150
e 67 69
e 67 72
e 67 80
e 67 81
e 67 82
e 67 88
e 67 90
e 67 91
e 67 94
e 67 97
e 67 98
e 67 103
e 67 104
e 67 106
e 67 107
e 67 110
e 67 112
e 67 116
e 67 118
e 67 119
e 67 121
e 67 123
e 67 131
e 67 136
e 67 137
e 67 139
e 67 141
e 67 143
e 67 145
e 67 146
e 67 147
e 68 69
e 68 74
e 68 81
e 68 84
e 68 89
e 68 91
e 68 94
e 68 101
e 68 103
e 68 104
e 68 108
e 68 109
e 68 111
e 68 112
e 68 114
e 68 120
e 68 122
e 68 123
e 68 124
e 68 126
e 68 127
e 68 132
e 68 133
e 68 134
e 68 136
e 68 137
e 68 141
e 68 143
e 68 147
e 68 149
e 69 70
e 69 78
e 69 79
e 69 80
e 69 82
e 69 85
e 69 86
e 69 89
e 69 92
e 69 94
e 69 95
e 69 98
e 69 101
e 69 103
e 69 105
e 69 106
e 69 107
e 69 110
e 69 112
e 69 119
e 69 120
e 69 121
e 69 124
e 69 125
e 69 126
e 69 132
e 69 134
e 69 136
e 69 137
e 69 142
e 69 147
e 69 150
e 70 74
e 70 76
e 70 78
e 70 83
e 70 84
e 70 88
e 70 94
e 70 96
e 70 99
e 70 100
e 70 101
e 70 102
e 70 103
e 70 104
e 70 106
e 70 109
e 70 110
e 70 119
e 70 124
e 70 129
e 70 131
e 70 132
e 70 133
e 70 134
e 70 135
e 70 137
e 70 138
e 70 139
e 70 140
e 70 142
e 70 143
e 70 144
e 70 149
e 71 74
e 71 79
e 71 80
e 71 85
e 71 86
e 71 88
e 71 91
e 71 94
e 71 96
e 71 97
e 71 99
e 71 100
e 71 101
e 71 103
e 71 104
e 71 109
e 71 110
e 71 111
e 71 114
e 71 115
e 71 116
e 71 118
e 71 121
e 71 123
e 71 126
e 71 128
e 71 129
e 71 133
e 71 134
e 71 136
e 71 137
e 71 139
e 71 146
e 71 147
e 71 149
e 72 77
e 72 80
e 72 82
e 72 85
e 72 86
e 72 89
e 72 92
e 72 94
e 72 100
e 72 102
e 72 106
e 72 107
e 72 108
e 72 109
e 72 111
e 72 112
e 72 114
e 72 117
e 72 119
e 72 121
e 72 124
e 72 127
e 72 128
e 72 129
e 72 130
e 72 132
e 72 137
e 72 139
e 72 144
e 72 146
e 72 150
e 73 74
e 73 79
e 73 81
e 73 84
e 73 87
e 73 91
e 73 93
e 73 98
e 73 101
e 73 105
e 73 109
e 73 113
e 73 115
e 73 116
e 73 118
e 73 119
e 73 122
e 73 123
e 73 127
e 73 128
e 73 132
e 73 134
e 73 135
e 73 138
e 73 147
e 73 148
e 74 80
e 74 81
e 74 83
e 74 84
e 74 89
e 74 94
e 74 98
e 74 101
e 74 102
e 74 103
e 74 104
e 74 106
e 74 107
e 74 108
e 74 109
e 74 112
e 74 113
e 74 120
e 74 121
e 74 123
e 74 126
e 74 127
e 74 129
e 74 134
e 74 137
e 74 138
e 74 139
e 74 140
e 74 141
e 74 144
e 74 145
e 74 146
e 74 149
e 75 76
e 75 78
e 75 81
e 75 83
e 75 86
e 75 90
e 75 93
e 75 94
e 75 95
e 75 99
e 75 100
e 75 102
e 75 104
e 75 115
e 75 116
e 75 119
e 75 120
e 75 125
e 75 127
e 75 128
e 75 132
e 75 137
e 75 140
e 75 141
e 75 143
e 75 145
e 76 77
e 76 78
e 76 79
e 76 81
e 76 84
e 76 85
e 76 87
e 76 89
e 76 91
e 76 94
e 76 95
e 76 97
e 76 99
e 76 101
e 76 103
e 76 107
e 76 115
e 76 121
e 76 124
e 76 125
e 76 132
e 76 135
e 76 142
e 76 145
e 76 148
e 76 149
e 77 78
e 77 80
e 77 81
e 77 83
e 77 84
e 77 87
e 77 93
e 77 96
e 77 99
e 77 101
e 77 102
e 77 105
e 77 112
e 77 113
e 77 116
e 77 120
e 77 122
e 77 125
e 77 126
e 77 128
e 77 131
e 77 132
e 77 134
e 77 136
e 77 142
e 77 146
e 77 147
e 77 148
e 77 149
e 77 150
e 78 81
e 78 82
e 78 84
e 78 91
e 78 95
e 78 97
e 78 98
e 78 99
e 78 101
e 78 103
e 78 104
e 78 105
e 78 108
e 78 109
e 78 111
e 78 113
e 78 115
e 78 117
e 78 119
e 78 120
e 78 121
e 78 123
e 78 125
e 78 128
e 78 129
e 78 135
e 78 137
e 78 141
e 78 143
e 78 146
e 79 80
e 79 83
e 79 84
e 79 85
e 79 88
e 79 92
e 79 93
e 79 94
e 79 96
e 79 99
e 79 101
e 79 104
e 79 107
e 79 112
e 79 116
e 79 121
e 79 122
e 79 123
e 79 124
e 79 125
e 79 127
e 79 128
e 79 134
e 79 136
e 79 140
e 79 141
e 79 147
e 79 149
e 80 81
e 80 82
e 80 87
e 80 88
e 80 92
e 80 93
e 80 94
e 80 98
e 80 99
e 80 103
e 80 104
e 80 106
e 80 107
e 80 108
e 80 109
e 80 110
e 80 111
e 80 114
e 80 115
e 80 116
e 80 119
e 80 120
e 80 123
e 80 124
e 80 125
e 80 129
e 80 130
e 80 132
e 80 134
e 80 135
e 80 136
e 80 137
e 80 139
e 80 143
e 80 149
e 80 150
e 81 82
e 81 86
e 81 87
e 81 96
e 81 99
e 81 103
e 81 104
e 81 107
e 81 108
e 81 114
e 81 115
e 81 118
e 81 119
e 81 122
e 81 123
e 81 124
e 81 126
e 81 128
e 81 130
e 81 131
e 81 132
e 81 133
e 81 135
e 81 136
e 81 140
e 81 144
e 81 149
e 81 150
e 82 89
e 82 90
e 82 93
e 82 95
e 82 96
e 82 100
e 82 102
e 82 107
e 82 109
e 82 114
e 82 115
e 82 118
e 82 119
e 82 131
e 82 132
e 82 133
e 82 134
e 82 135
e 82 137
e 82 141
e 82 143
e 82 148
e 82 150
e 83 84
e 83 87
e 83 89
e 83 91
e 83 98
e 83 105
e 83 112
e 83 113
e 83 114
e 83 116
e 83 117
e 83 120
e 83 121
e 83 122
e 83 123
e 83 128
e 83 132
e 83 133
e 83 134
e 83 135
e 83 140
e 83 141
e 83 144
e 83 145
e 84 85
e 84 86
e 84 87
e 84 93
e 84 94
e 84 98
e 84 101
e 84 102
e 84 104
e 84 105
e 84 109
e 84 110
e 84 112
e 84 114
e 84 115
e 84 116
e 84 119
e 84 121
e 84 127
e 84 128
e 84 129
e 84 130
e 84 133
e 84 134
e 84 137
e 84 143
e 84 146
e 84 147
e 85 87
e 85 88
e 85 89
e 85 91
e 85 92
e 85 93
e 85 94
e 85 96
e 85 99
e 85 102
e 85 104
e 85 105
e 85 106
e 85 107
e 85 109
e 85 110
e 85 111
e 85 113
e 85 115
e 85 118
e 85 124
e 85 127
e 85 131
e 85 132
e 85 135
e 85 137
e 85 138
e 85 143
e 85 145
e 85 147
e 85 150
e 86 87
e 86 89
e 86 92
e 86 96
e 86 97
e 86 98
e 86 99
e 86 103
e 86 104
e 86 107
e 86 108
e 86 113
e 86 116
e 86 119
e 86 124
e 86 125
e 86 127
e 86 129
e 86 130
e 86 131
e 86 132
e 86 135
e 86 136
e 86 137
e 86 138
e 86 140
e 86 141
e 86 144
e 86 145
e 86 147
e 86 148
e 86 149
e 87 90
e 87 92
e 87 94
e 87 98
e 87 101
e 87 105
e 87 106
e 87 111
e 87 113
e 87 114
e 87 115
e 87 117
e 87 121
e 87 123
e 87 124
e 87 125
e 87 127
e 87 129
e 87 131
e 87 132
e 87 134
e 87 137
e 87 138
e 87 140
e 87 143
e 87 145
e 87 147
e 87 148
e 87 149
e 87 150
e 88 89
e 88 91
e 88 92
e 88 96
e 88 97
e 88 98
e 88 102
e 88 103
e 88 104
e 88 106
e 88 110
e 88 112
e 88 113
e 88 116
e 88 119
e 88 122
e 88 123
e 88 124
e 88 126
e 88 127
e 88 135
e 88 139
e 88 140
e 88 143
e 88 145
e 88 146
e 88 149
e 88 150
e 89 93
e 89 98
e 89 100
e 89 102
e 89 106
e 89 108
e 89 111
e 89 114
e 89 115
e 89 117
e 89 118
e 89 120
e 89 124
e 89 127
e 89 130
e 89 133
e 89 136
e 89 137
e 89 138
e 89 139
e 89 141
e 89 145
e 89 149
e 89 150
e 90 93
e 90 94
e 90 95
e 90 97
e 90 99
e 90 101
e 90 102
e 90 103
e 90 104
e 90 111
e 90 112
e 90 113
e 90 114
e 90 116
e 90 118
e 90 121
e 90 122
e 90 128
e 90 129
e 90 132
e 90 138
e 90 139
e 90 140
e 90 143
e 90 144
e 90 146
e 90 150
e 91 92
e 91 93
e 91 94
e 91 95
e 91 96
e 91 97
e 91 98
e 91 99
e 91 103
e 91 110
e 91 112
e 91 114
e 91 115
e 91 116
e 91 118
e 91 119
e 91 120
e 91 121
e 91 123
e 91 124
e 91 126
e 91 128
e 91 129
e 91 139
e 91 140
e 91 141
e 91 142
e 91 147
e 91 148
e 92 93
e 92 98
e 92 99
e 92 106
e 92 107
e 92 110
e 92 113
e 92 115
e 92 116
e 92 118
e 92 119
e 92 121
e 92 124
e 92 130
e 92 131
e 92 132
e 92 133
e 92 134
e 92 136
e 92 138
e 92 139
e 92 149
e 92 150
e 93 96
e 93 99
e 93 100
e 93 101
e 93 103
e 93 104
e 93 107
e 93 109
e 93 111
e 93 112
e 93 114
e 93 115
e 93 118
e 93 122
e 93 123
e 93 124
e 93 125
e 93 127
e 93 128
e 93 129
e 93 131
e 93 132
e 93 135
e 93 136
e 93 142
e 93 143
e 93 145
e 93 148
e 94 95
e 94 96
e 94 98
e 94 99
e 94 101
e 94 102
e 94 106
e 94 107
e 94 109
e 94 113
e 94 114
e 94 115
e 94 116
e 94 120
e 94 123
e 94 126
e 94 128
e 94 130
e 94 133
e 94 134
e 94 137
e 94 140
e 94 142
e 94 150
e 95 99
e 95 102
e 95 105
e 95 106
e 95 108
e 95 109
e 95 117
e 95 119
e 95 121
e 95 122
e 95 124
e 95 126
e 95 128
e 95 130
e 95 135
e 95 136
e 95 138
e 95 142
e 95 146
e 95 147
e 95 149
e 96 99
e 96 101
e 96 103
e 96 105
e 96 112
e 96 113
e 96 115
e 96 124
e 96 125
e 96 128
e 96 129
e 96 132
e 96 134
e 96 136
e 96 137
e 96 140
e 96 147
e 96 148
e 97 100
e 97 104
e 97 106
e 97 107
e 97 110
e 97 113
e 97 115
e 97 116
e 97 117
e 97 119
e 97 124
e 97 127
e 97 128
e 97 130
e 97 131
e 97 137
e 97 138
e 97 139
e 97 141
e 97 142
e 97 144
e 97 145
e 97 147
e 97 150
e 98 99
e 98 101
e 98 103
e 98 105
e 98 111
e 98 117
e 98 118
e 98 119
e 98 121
e 98 122
e 98 127
e 98 128
e 98 131
e 98 133
e 98 135
e 98 136
e 98 137
e 98 138
e 98 139
e 98 141
e 98 150
e 99 102
e 99 108
e 99 112
e 99 113
e 99 114
e 99 117
e 99 121
e 99 122
e 99 124
e 99 125
e 99 126
e 99 127
e 99 133
e 99 140
e 99 141
e 99 142
e 99 147
e 99 148
e 99 149
e 99 150
e 100 101
e 100 102
e 100 104
e 100 108
e 100 109
e 100 110
e 100 118
e 100 125
e 100 128
e 100 129
e 100 130
e 100 131
e 100 133
e 100 135
e 100 140
e 100 142
e 100 146
e 100 148
e 101 105
e 101 106
e 101 108
e 101 111
e 101 114
e 101 121
e 101 125
e 101 126
e 101 128
e 101 131
e 101 133
e 101 134
e 101 136
e 101 138
e 101 139
e 101 142
e 101 144
e 101 147
e 101 150
e 102 104
e 102 105
e 102 106
e 102 108
e 102 109
e 102 111
e 102 113
e 102 118
e 102 120
e 102 121
e 102 122
e 102 124
e 102 126
e 102 129
e 102 130
e 102 131
e 102 138
e 102 139
e 102 143
e 102 145
e 102 148
e 102 149
e 103 105
e 103 106
e 103 107
e 103 110
e 103 113
e 103 114
e 103 117
e 103 118
e 103 123
e 103 127
e 103 128
e 103 129
e 103 133
e 103 134
e 103 136
e 103 139
e 103 141
e 103 142
e 103 143
e 103 145
e 103 147
e 103 149
e 104 105
e 104 109
e 104 110
e 104 111
e 104 114
e 104 118
e 104 120
e 104 122
e 104 130
e 104 132
e 104 134
e 104 135
e 104 137
e 104 138
e 104 149
e 104 150
e 105 110
e 105 111
e 105 112
e 105 114
e 105 115
e 105 117
e 105 119
e 105 122
e 105 129
e 105 136
e 105 140
e 105 141
e 105 146
e 105 148
e 106 112
e 106 115
e 106 117
e 106 118
e 106 119
e 106 121
e 106 122
e 106 126
e 106 128
e 106 131
e 106 132
e 106 133
e 106 134
e 106 135
e 106 137
e 106 143
e 106 145
e 106 146
e 107 111
e 107 113
e 107 114
e 107 117
e 107 119
e 107 123
e 107 125
e 107 126
e 107 127
e 107 128
e 107 129
e 107 131
e 107 133
e 107 134
e 107 135
e 107 140
e 107 142
e 107 143
e 107 144
e 107 148
e 107 149
e 108 109
e 108 112
e 108 115
e 108 116
e 108 118
e 108 121
e 108 122
e 108 124
e 108 128
e 108 130
e 108 132
e 108 134
e 108 137
e 108 139
e 108 141
e 108 142
e 108 144
e 108 145
e 108 149
e 109 112
e 109 113
e 109 117
e 109 118
e 109 119
e 109 120
e 109 121
e 109 123
e 109 124
e 109 126
e 109 129
e 109 130
e 109 132
e 109 133
e 109 135
e 109 138
e 109 140
e 109 141
e 109 146
e 109 148
e 109 149
e 110 111
e 110 112
e 110 113
e 110 114
e 110 117
e 110 118
e 110 120
e 110 125
e 110 127
e 110 130
e 110 131
e 110 132
e 110 134
e 110 135
e 110 136
e 110 139
e 110 140
e 110 142
e 110 144
e 110 146
e 110 148
e 110 149
e 111 116
e 111 117
e 111 120
e 111 124
e 111 128
e 111 129
e 111 131
e 111 136
e 111 137
e 111 141
e 111 142
e 111 143
e 111 144
e 111 147
e 111 148
e 112 114
e 112 119
e 112 120
e 112 121
e 112 123
e 112 125
e 112 129
e 112 130
e 112 133
e 112 136
e 112 137
e 112 139
e 112 140
e 112 141
e 112 145
e 112 150
e 113 120
e 113 122
e 113 123
e 113 124
e 113 130
e 113 133
e 113 136
e 113 138
e 113 139
e 113 140
e 113 141
e 113 143
e 113 144
e 113 146
e 113 148
e 114 119
e 114 122
e 114 123
e 114 125
e 114 126
e 114 127
e 114 128
e 114 129
e 114 131
e 114 133
e 114 138
e 115 116
e 115 123
e 115 125
e 115 126
e 115 128
e 115 132
e 115 133
e 115 135
e 115 136
e 115 138
e 115 141
e 115 145
e 115 146
e 115 148
e 115 149
e 116 117
e 116 120
e 116 122
e 116 124
e 116 128
e 116 130
e 116 131
e 116 135
e 116 137
e 116 139
e 116 140
e 116 141
e 116 143
e 116 150
e 117 119
e 117 120
e 117 123
e 117 127
e 117 128
e 117 130
e 117 131
e 117 134
e 117 137
e 117 138
e 117 143
e 117 146
e 117 147
e 117 148
e 118 119
e 118 124
e 118 125
e 118 126
e 118 132
e 118 133
e 118 141
e 118 142
e 118 143
e 118 144
e 118 146
e 118 147
e 119 120
e 119 121
e 119 123
e 119 128
e 119 129
e 119 130
e 119 131
e 119 132
e 119 134
e 119 135
e 119 138
e 119 142
e 119 146
e 119 147
e 120 122
e 120 124
e 120 127
e 120 128
e 120 129
e 120 130
e 120 132
e 120 134
e 120 136
e 120 137
e 120 149
e 121 124
e 121 126
e 121 131
e 121 132
e 121 133
e 121 135
e 121 137
e 121 138
e 121 140
e 121 143
e 121 145
e 121 146
e 121 147
e 121 150
e 122 128
e 122 130
e 122 131
e 122 132
e 122 135
e 122 136
e 122 137
e 122 139
e 122 140
e 122 144
e 122 145
e 123 129
e 123 130
e 123 133
e 123 135
e 123 136
e 123 142
e 123 150
e 124 125
e 124 126
e 124 128
e 124 129
e 124 130
e 124 132
e 124 138
e 124 140
e 124 141
e 125 128
e 125 130
e 125 134
e 125 136
e 125 137
e 125 140
e 125 144
e 126 128
e 126 129
e 126 135
e 126 136
e 126 140
e 126 143
e 126 144
e 126 145
e 126 147
e 127 128
e 127 129
e 127 132
e 127 134
e 127 137
e 127 138
e 127 140
e 127 142
e 127 143
e 127 146
e 127 148
e 128 138
e 128 139
e 128 143
e 128 146
e 128 147
e 128 148
e 128 149
e 129 132
e 129 135
e 129 137
e 129 138
e 129 140
e 129 144
e 129 149
e 130 132
e 130 136
e 130 138
e 130 139
e 130 140
e 130 141
e 130 142
e 130 144
e 130 145
e 130 149
e 131 135
e 131 136
e 131 143
e 131 144
e 132 133
e 132 136
e 132 137
e 132 139
e 132 142
e 132 149
e 133 134
e 133 137
e 133 143
e 133 145
e 133 146
e 133 147
e 133 149
e 133 150
e 134 136
e 134 137
e 134 138
e 134 141
e 134 142
e 134 146
e 134 147
e 134 148
e 135 136
e 135 138
e 135 139
e 135 144
e 135 145
e 135 148
e 136 143
e 136 144
e 136 145
e 136 146
e 136 148
e 136 149
e 137 139
e 137 142
e 137 144
e 137 147
e 137 148
e 138 139
e 138 143
e 138 144
e 138 146
e 138 147
e 138 148
e 139 144
e 139 145
e 139 150
e 140 146
e 140 150
e 141 145
e 141 146
e 141 147
e 141 150
e 142 144
e 142 145
e 143 148
e 143 150
e 144 145
e 144 147
e 145 150
e 146 148
e 147 149
e 147 150
e 148 149
